66
106
0
35
98
29
29
70
9
85
56
41
57
41
32
22
52
72
54
29
31
76
11
46
57
68
33
20
45
78
74
32
90
125
71
52
28
37
0
53
130
65
81
79
40
52
60
21
26
42
14
14
30
102
0
54
40
70
27
51
30
97
122
74
48
43
41
73
17
98
42
91
55
17
18
68
82
54
18
69
70
0
97
18
17
106
59
53
58
52
33
99
28
57
0
106
51
34
17
51
